152 150 66 194 73 199 161 42 12 91 129 147 44 101 116 138 126 196 103 20 46 113 75 168 107 98 143 123 125 25 144 124 64 181 192 164 187 175 105 33 162 159 141 24 185 18 14 137 121 9 169 190 183 106 19 63 69 21 77 136 117 39 176 89 114 4 177 158 154 22 53 83 43 163 0 198 156 16 191 54 95 67 131 28 57 130 81 70 52 74 27 36 88 119 84 188 26 90 173 68 31 3 72 61 51 60 30 142 108 29 92 157 110 15 167 128 145 104 97 112 62 82 149 38 120 1 32 146 180 170 179 133 49 186 165 34 2 193 148 160 6 182 76 172 94 195 80 48 171 11 86 155 151 140 8 55 85 134 93 45 65 10 178 59 127 40 153 35 197 135 47 13 96 7 174 41 102 132 99 78 122 166 100 189 50 79 56 58 115 71 139 184 87 109 17 23 5 111 37 118 

